solution status: optimal solution found
objective value:                     212046.969755221
d11(0,0)                                            1 	(obj:0)
d11(1,1)                                            1 	(obj:0)
d11(2,3)                                            1 	(obj:0)
d11(2,5)                                            1 	(obj:0)
d11(3,7)                                            1 	(obj:0)
d11(3,9)                                            1 	(obj:0)
d11(3,11)                                           1 	(obj:0)
d11(3,13)                                           1 	(obj:0)
d11(4,15)                                           1 	(obj:0)
d11(4,17)                                           1 	(obj:0)
d11(4,19)                                           1 	(obj:0)
d11(4,21)                                           1 	(obj:0)
d11(4,23)                                           1 	(obj:0)
d11(4,25)                                           1 	(obj:0)
d11(4,27)                                           1 	(obj:0)
d11(4,28)                                           1 	(obj:0)
d11(4,29)                                           1 	(obj:0)
d11(5,31)                                           1 	(obj:0)
d11(5,33)                                           1 	(obj:0)
d11(5,34)                                           1 	(obj:0)
d11(5,35)                                           1 	(obj:0)
d11(5,36)                                           1 	(obj:0)
d11(5,37)                                           1 	(obj:0)
d11(5,38)                                           1 	(obj:0)
d11(5,39)                                           1 	(obj:0)
d11(5,40)                                           1 	(obj:0)
d11(5,41)                                           1 	(obj:0)
d11(5,42)                                           1 	(obj:0)
d11(5,43)                                           1 	(obj:0)
d11(5,44)                                           1 	(obj:0)
d11(5,45)                                           1 	(obj:0)
d11(5,46)                                           1 	(obj:0)
d11(5,47)                                           1 	(obj:0)
d11(5,48)                                           1 	(obj:0)
d11(5,49)                                           1 	(obj:0)
d11(5,50)                                           1 	(obj:0)
d11(5,51)                                           1 	(obj:0)
d11(5,52)                                           1 	(obj:0)
d11(5,53)                                           1 	(obj:0)
d11(5,54)                                           1 	(obj:0)
d11(5,55)                                           1 	(obj:0)
d11(5,56)                                           1 	(obj:0)
d11(5,57)                                           1 	(obj:0)
d11(5,59)                                           1 	(obj:0)
d11(5,60)                                           1 	(obj:0)
d11(5,61)                                           1 	(obj:0)
d11(5,62)                                           1 	(obj:0)
d11(6,63)                                           1 	(obj:0)
d11(6,65)                                           1 	(obj:0)
d11(6,67)                                           1 	(obj:0)
d11(6,69)                                           1 	(obj:0)
d11(6,71)                                           1 	(obj:0)
d11(6,73)                                           1 	(obj:0)
d11(6,75)                                           1 	(obj:0)
d11(6,77)                                           1 	(obj:0)
d11(6,79)                                           1 	(obj:0)
d11(6,81)                                           1 	(obj:0)
d11(6,83)                                           1 	(obj:0)
d11(6,85)                                           1 	(obj:0)
d11(6,87)                                           1 	(obj:0)
d11(6,89)                                           1 	(obj:0)
d11(6,91)                                           1 	(obj:0)
d11(6,93)                                           1 	(obj:0)
d11(6,95)                                           1 	(obj:0)
d11(6,97)                                           1 	(obj:0)
d11(6,99)                                           1 	(obj:0)
d11(6,101)                                          1 	(obj:0)
d11(6,103)                                          1 	(obj:0)
d11(6,105)                                          1 	(obj:0)
d11(6,107)                                          1 	(obj:0)
d11(6,109)                                          1 	(obj:0)
d11(6,111)                                          1 	(obj:0)
d11(6,113)                                          1 	(obj:0)
d11(6,115)                                          1 	(obj:0)
d11(6,117)                                          1 	(obj:0)
d11(6,119)                                          1 	(obj:0)
d11(6,121)                                          1 	(obj:0)
d11(6,123)                                          1 	(obj:0)
d11(6,125)                                          1 	(obj:0)
d12(1,2)                                            1 	(obj:0)
d12(2,4)                                            1 	(obj:0)
d12(2,6)                                            1 	(obj:0)
d12(3,8)                                            1 	(obj:0)
d12(3,10)                                           1 	(obj:0)
d12(3,12)                                           1 	(obj:0)
d12(3,14)                                           1 	(obj:0)
d21(4,15)                                           1 	(obj:0)
d21(5,31)                                           1 	(obj:0)
d21(5,32)                                           1 	(obj:0)
d21(5,33)                                           1 	(obj:0)
d21(5,35)                                           1 	(obj:0)
d21(5,39)                                           1 	(obj:0)
d21(5,47)                                           1 	(obj:0)
d21(6,63)                                           1 	(obj:0)
d21(6,64)                                           1 	(obj:0)
d21(6,65)                                           1 	(obj:0)
d21(6,66)                                           1 	(obj:0)
d21(6,67)                                           1 	(obj:0)
d21(6,68)                                           1 	(obj:0)
d21(6,69)                                           1 	(obj:0)
d21(6,71)                                           1 	(obj:0)
d21(6,72)                                           1 	(obj:0)
d21(6,73)                                           1 	(obj:0)
d21(6,74)                                           1 	(obj:0)
d21(6,75)                                           1 	(obj:0)
d21(6,76)                                           1 	(obj:0)
d21(6,79)                                           1 	(obj:0)
d21(6,80)                                           1 	(obj:0)
d21(6,81)                                           1 	(obj:0)
d21(6,82)                                           1 	(obj:0)
d21(6,83)                                           1 	(obj:0)
d21(6,84)                                           1 	(obj:0)
d21(6,85)                                           1 	(obj:0)
d21(6,87)                                           1 	(obj:0)
d21(6,88)                                           1 	(obj:0)
d21(6,89)                                           1 	(obj:0)
d21(6,91)                                           1 	(obj:0)
d21(6,95)                                           1 	(obj:0)
d21(6,96)                                           1 	(obj:0)
d21(6,97)                                           1 	(obj:0)
d21(6,98)                                           1 	(obj:0)
d21(6,99)                                           1 	(obj:0)
d21(6,100)                                          1 	(obj:0)
d21(6,103)                                          1 	(obj:0)
d21(6,104)                                          1 	(obj:0)
d21(6,105)                                          1 	(obj:0)
d21(6,107)                                          1 	(obj:0)
d21(6,111)                                          1 	(obj:0)
d21(6,112)                                          1 	(obj:0)
d21(6,113)                                          1 	(obj:0)
d21(6,115)                                          1 	(obj:0)
d21(6,119)                                          1 	(obj:0)
STE(1,1)                             6831.14047257529 	(obj:0)
STE(0,0)                                         7875 	(obj:0)
STE(1,2)                              8192.9213370325 	(obj:0)
STE(2,3)                             6201.14047257529 	(obj:0)
STE(2,4)                             7517.35455845176 	(obj:0)
STE(2,5)                              7562.9213370325 	(obj:0)
STE(2,6)                             8879.13542290897 	(obj:0)
STE(3,7)                             5157.28094515059 	(obj:0)
STE(3,8)                              6519.0618096078 	(obj:0)
STE(3,9)                             6473.49503102706 	(obj:0)
STE(3,10)                            7835.27589548427 	(obj:0)
STE(3,11)                             6519.0618096078 	(obj:0)
STE(3,12)                            7880.84267406501 	(obj:0)
STE(3,13)                            7835.27589548427 	(obj:0)
STE(3,14)                            9197.05675994148 	(obj:0)
STE(4,15)                            2869.03104626174 	(obj:0)
STE(4,16)                            4527.28094515059 	(obj:0)
STE(4,17)                            4230.81191071895 	(obj:0)
STE(4,18)                             5889.0618096078 	(obj:0)
STE(4,19)                            4185.24513213821 	(obj:0)
STE(4,20)                            5843.49503102706 	(obj:0)
STE(4,21)                            5547.02599659542 	(obj:0)
STE(4,22)                            7205.27589548427 	(obj:0)
STE(4,23)                            4230.81191071895 	(obj:0)
STE(4,24)                             5889.0618096078 	(obj:0)
STE(4,25)                            5592.59277517616 	(obj:0)
STE(4,26)                            7250.84267406501 	(obj:0)
STE(4,27)                            5547.02599659542 	(obj:0)
STE(4,28)                            7205.27589548424 	(obj:0)
STE(4,29)                            6908.80686105263 	(obj:0)
STE(4,30)                            8567.05675994148 	(obj:0)
STE(5,31)                            580.781147372928 	(obj:0)
STE(5,32)                            2239.03104626174 	(obj:0)
STE(5,33)                            2239.03104626177 	(obj:0)
STE(5,34)                            3897.28094515059 	(obj:0)
STE(5,35)                            1942.56201183014 	(obj:0)
STE(5,36)                            3600.81191071895 	(obj:0)
STE(5,37)                            3600.81191071898 	(obj:0)
STE(5,38)                             5259.0618096078 	(obj:0)
STE(5,39)                             1896.9952332494 	(obj:0)
STE(5,40)                            3555.24513213821 	(obj:0)
STE(5,41)                            3555.24513213824 	(obj:0)
STE(5,42)                            5213.49503102706 	(obj:0)
STE(5,43)                            3258.77609770661 	(obj:0)
STE(5,44)                            4917.02599659543 	(obj:0)
STE(5,45)                            4917.02599659545 	(obj:0)
STE(5,46)                            6575.27589548427 	(obj:0)
STE(5,47)                            1942.56201183014 	(obj:0)
STE(5,48)                            3600.81191071895 	(obj:0)
STE(5,49)                            3600.81191071898 	(obj:0)
STE(5,50)                             5259.0618096078 	(obj:0)
STE(5,51)                            3304.34287628735 	(obj:0)
STE(5,52)                            4962.59277517616 	(obj:0)
STE(5,53)                            4962.59277517619 	(obj:0)
STE(5,54)                            6620.84267406501 	(obj:0)
STE(5,55)                            3258.77609770661 	(obj:0)
STE(5,56)                            4917.02599659542 	(obj:0)
STE(5,57)                            4917.02599659542 	(obj:0)
STE(5,58)                            6575.27589548426 	(obj:0)
STE(5,59)                            4620.55696216381 	(obj:0)
STE(5,60)                            6278.80686105263 	(obj:0)
STE(5,61)                            6278.80686105266 	(obj:0)
STE(5,62)                            7937.05675994148 	(obj:0)
STE(6,63)                           -1528.28066223487 	(obj:0)
STE(6,64)                           -49.2188526270729 	(obj:0)
STE(6,65)                            129.969236653944 	(obj:0)
STE(6,66)                            1609.03104626174 	(obj:0)
STE(6,67)                            129.969236653972 	(obj:0)
STE(6,68)                            1609.03104626177 	(obj:0)
STE(6,69)                            1788.21913554279 	(obj:0)
STE(6,70)                            3267.28094515059 	(obj:0)
STE(6,71)                           -166.499797777665 	(obj:0)
STE(6,72)                            1312.56201183014 	(obj:0)
STE(6,73)                            1491.75010111115 	(obj:0)
STE(6,74)                            2970.81191071895 	(obj:0)
STE(6,75)                            1491.75010111118 	(obj:0)
STE(6,76)                            2970.81191071898 	(obj:0)
STE(6,77)                                        3150 	(obj:0)
STE(6,78)                             4629.0618096078 	(obj:0)
STE(6,79)                           -212.066576358405 	(obj:0)
STE(6,80)                             1266.9952332494 	(obj:0)
STE(6,81)                            1446.18332253041 	(obj:0)
STE(6,82)                            2925.24513213821 	(obj:0)
STE(6,83)                            1446.18332253044 	(obj:0)
STE(6,84)                            2925.24513213824 	(obj:0)
STE(6,85)                            3104.43322141926 	(obj:0)
STE(6,86)                            4583.49503102706 	(obj:0)
STE(6,87)                            1149.71428809881 	(obj:0)
STE(6,88)                            2628.77609770661 	(obj:0)
STE(6,89)                            2807.96418698763 	(obj:0)
STE(6,90)                            4287.02599659543 	(obj:0)
STE(6,91)                            2807.96418698765 	(obj:0)
STE(6,92)                            4287.02599659545 	(obj:0)
STE(6,93)                            4466.21408587647 	(obj:0)
STE(6,94)                            5945.27589548427 	(obj:0)
STE(6,95)                           -166.499797777665 	(obj:0)
STE(6,96)                            1312.56201183014 	(obj:0)
STE(6,97)                            1491.75010111115 	(obj:0)
STE(6,98)                            2970.81191071895 	(obj:0)
STE(6,99)                            1491.75010111118 	(obj:0)
STE(6,100)                           2970.81191071898 	(obj:0)
STE(6,101)                                       3150 	(obj:0)
STE(6,102)                            4629.0618096078 	(obj:0)
STE(6,103)                           1195.28106667955 	(obj:0)
STE(6,104)                           2674.34287628735 	(obj:0)
STE(6,105)                           2853.53096556836 	(obj:0)
STE(6,106)                           4332.59277517616 	(obj:0)
STE(6,107)                           2853.53096556839 	(obj:0)
STE(6,108)                           4332.59277517619 	(obj:0)
STE(6,109)                           4511.78086445721 	(obj:0)
STE(6,110)                           5990.84267406501 	(obj:0)
STE(6,111)                           1149.71428809881 	(obj:0)
STE(6,112)                           2628.77609770661 	(obj:0)
STE(6,113)                           2807.96418698762 	(obj:0)
STE(6,114)                           4287.02599659542 	(obj:0)
STE(6,115)                           2807.96418698762 	(obj:0)
STE(6,116)                           4287.02599659542 	(obj:0)
STE(6,117)                           4466.21408587646 	(obj:0)
STE(6,118)                           5945.27589548426 	(obj:0)
STE(6,119)                           2511.49515255601 	(obj:0)
STE(6,120)                           3990.55696216381 	(obj:0)
STE(6,121)                           4169.74505144483 	(obj:0)
STE(6,122)                           5648.80686105263 	(obj:0)
STE(6,123)                           4169.74505144486 	(obj:0)
STE(6,124)                           5648.80686105266 	(obj:0)
STE(6,125)                           5827.99495033368 	(obj:0)
STE(6,126)                           7307.05675994148 	(obj:0)
y1(6,99)                             1331.15562864702 	(obj:0)
y1(6,101)                            1331.15562864702 	(obj:0)
y1(6,103)                            1331.15562864702 	(obj:0)
y1(6,105)                            1331.15562864702 	(obj:0)
y1(6,107)                            1331.15562864702 	(obj:0)
y1(6,109)                            1331.15562864702 	(obj:0)
y1(6,111)                            1331.15562864702 	(obj:0)
y1(6,113)                            1331.15562864702 	(obj:0)
y1(6,115)                            1331.15562864702 	(obj:0)
y1(6,117)                            1331.15562864702 	(obj:0)
y1(6,119)                            1331.15562864702 	(obj:0)
y1(6,121)                            1331.15562864702 	(obj:0)
y1(6,123)                            1331.15562864702 	(obj:0)
y1(6,125)                            1331.15562864702 	(obj:0)
BG(5)                                723.522421037825 	(obj:10)
BG(6)                                 985.37011375673 	(obj:10)
WB(1)                                206.066760693125 	(obj:0)
AVE(1)                               3259.55177567504 	(obj:0)
WB(2)                                586.145949266141 	(obj:0)
AVE(2)                               3259.55588804169 	(obj:0)
WB(3)                                525.876637109754 	(obj:0)
AVE(3)                               3579.36165209166 	(obj:0)
AVE(4)                               3579.36576445831 	(obj:0)
AVE(5)                               3472.77007794174 	(obj:0)
AVE(6)                                3046.3618950668 	(obj:0)
WG(1)                                3053.48501498192 	(obj:10)
WG(2)                                2673.40993877555 	(obj:10)
WG(3)                                3053.48501498191 	(obj:10)
WG(4)                                3579.36576445831 	(obj:10)
WG(5)                                3472.77007794174 	(obj:10)
WG(6)                                 3046.3618950668 	(obj:10)
BG(4)                                616.926734521281 	(obj:10)
y1(1,1)                              372.473574682239 	(obj:0)
y1(3,7)                               372.47357468223 	(obj:0)
y1(3,9)                               372.47357468223 	(obj:0)
y1(3,11)                              372.47357468223 	(obj:0)
y1(3,13)                              372.47357468223 	(obj:0)
y1(4,15)                             1492.42490899996 	(obj:0)
y1(4,17)                             1492.42490899996 	(obj:0)
y1(4,19)                             1492.42490899996 	(obj:0)
y1(4,21)                             1492.42490899996 	(obj:0)
y1(4,23)                             1492.42490899996 	(obj:0)
y1(4,25)                             1492.42490899996 	(obj:0)
y1(4,27)                             1492.42490899996 	(obj:0)
y1(4,29)                             1492.42490899996 	(obj:0)
y1(5,31)                             1492.42490899994 	(obj:0)
y1(5,33)                             1492.42490899994 	(obj:0)
y1(5,35)                             1492.42490899994 	(obj:0)
y1(5,37)                             1492.42490899994 	(obj:0)
y1(5,39)                             1492.42490899994 	(obj:0)
y1(5,41)                             1492.42490899994 	(obj:0)
y1(5,43)                             1492.42490899994 	(obj:0)
y1(5,45)                             1492.42490899994 	(obj:0)
y1(5,47)                             1492.42490899994 	(obj:0)
y1(5,49)                             1492.42490899994 	(obj:0)
y1(5,51)                             1492.42490899994 	(obj:0)
y1(5,53)                             1492.42490899994 	(obj:0)
y1(5,55)                             1492.42490899994 	(obj:0)
y1(5,57)                             1492.42490899994 	(obj:0)
y1(5,59)                             1492.42490899994 	(obj:0)
y1(5,61)                             1492.42490899994 	(obj:0)
y1(6,63)                             1331.15562864702 	(obj:0)
y1(6,65)                             1331.15562864702 	(obj:0)
y1(6,67)                             1331.15562864702 	(obj:0)
y1(6,69)                             1331.15562864702 	(obj:0)
y1(6,71)                             1331.15562864702 	(obj:0)
y1(6,73)                             1331.15562864702 	(obj:0)
y1(6,75)                             1331.15562864702 	(obj:0)
y1(6,77)                             1331.15562864702 	(obj:0)
y1(6,79)                             1331.15562864702 	(obj:0)
y1(6,81)                             1331.15562864702 	(obj:0)
y1(6,83)                             1331.15562864702 	(obj:0)
y1(6,85)                             1331.15562864702 	(obj:0)
y1(6,87)                             1331.15562864702 	(obj:0)
y1(6,89)                             1331.15562864702 	(obj:0)
y1(6,91)                             1331.15562864702 	(obj:0)
y1(6,93)                             1331.15562864702 	(obj:0)
y1(6,95)                             1331.15562864702 	(obj:0)
y1(6,97)                             1331.15562864702 	(obj:0)
y2(1,2)                              997.811933718421 	(obj:0)
y2(2,4)                              1385.48851144891 	(obj:0)
y2(2,6)                              1385.48851144891 	(obj:0)
y2(3,8)                              997.811933718429 	(obj:0)
y2(3,10)                              997.81193371843 	(obj:0)
y2(3,12)                              997.81193371843 	(obj:0)
y2(3,14)                              997.81193371843 	(obj:0)
